(set-option :produce-models true)
(set-logic QF_UF)
(declare-fun p42() Bool)
(declare-fun p57() Bool)
(declare-fun p51() Bool)
(declare-fun p27() Bool)
(declare-fun p38() Bool)
(declare-fun p69() Bool)
(declare-fun p46() Bool)
(declare-fun p47() Bool)
(declare-fun p29() Bool)
(declare-fun p4() Bool)
(declare-fun p14() Bool)
(declare-fun p35() Bool)
(declare-fun p9() Bool)
(declare-fun p10() Bool)
(declare-fun p50() Bool)
(declare-fun p28() Bool)
(declare-fun p21() Bool)
(declare-fun p44() Bool)
(declare-fun p43() Bool)
(declare-fun p13() Bool)
(declare-fun p0() Bool)
(declare-fun p54() Bool)
(declare-fun p41() Bool)
(declare-fun p64() Bool)
(declare-fun p1() Bool)
(declare-fun p11() Bool)
(declare-fun p61() Bool)
(declare-fun p60() Bool)
(declare-fun p67() Bool)
(declare-fun p32() Bool)
(declare-fun p55() Bool)
(declare-fun p52() Bool)
(declare-fun p39() Bool)
(declare-fun p25() Bool)
(declare-fun p45() Bool)
(declare-fun p19() Bool)
(declare-fun p8() Bool)
(declare-fun p58() Bool)
(declare-fun p30() Bool)
(declare-fun p40() Bool)
(declare-fun p34() Bool)
(declare-fun p18() Bool)
(declare-fun p33() Bool)
(declare-fun p66() Bool)
(declare-fun p6() Bool)
(declare-fun p68() Bool)
(declare-fun p23() Bool)
(declare-fun p5() Bool)
(declare-fun p56() Bool)
(declare-fun p31() Bool)
(declare-fun p62() Bool)
(declare-fun p63() Bool)
(declare-fun p2() Bool)
(declare-fun p17() Bool)
(declare-fun p24() Bool)
(declare-fun p20() Bool)
(declare-fun p3() Bool)
(declare-fun p48() Bool)
(declare-fun p59() Bool)
(declare-fun p22() Bool)
(declare-fun p7() Bool)
(declare-fun p49() Bool)
(declare-fun p36() Bool)
(declare-fun p12() Bool)
(declare-fun p65() Bool)
(declare-fun p16() Bool)
(declare-fun p37() Bool)
(declare-fun p26() Bool)
(declare-fun p53() Bool)
(declare-fun p15() Bool)
(assert
(and (or (not p42) (not p57) p51) (or p27 p38 p69) (or p46 p47 p29) (or p4 (not p14) p35) (or p9 (not p10) p50) (or (not p28) p21 p44) (or (not p43) p13 p43) (or (not p43) (not p46) p0) (or (not p35) (not p54) p50) (or (not p47) p35 (not p41)) (or p47 (not p46) (not p64)) (or p1 p11 (not p21)) (or p27 (not p61) (not p60)) (or p10 p67 (not p32)) (or p9 p55 p52) (or p38 (not p44) (not p39)) (or p25 (not p38) (not p57)) (or (not p45) (not p19) p52) (or p61 (not p8) (not p58)) (or p30 (not p58) p43) (or (not p40) p34 (not p35)) (or (not p44) (not p18) (not p33)) (or p27 (not p39) p8) (or p66 (not p18) (not p50)) (or (not p6) (not p69) (not p68)) (or (not p23) (not p25) (not p69)) (or (not p44) p60 p47) (or (not p52) p4 p5) (or p29 (not p32) p13) (or p11 p52 (not p58)) (or p25 p27 (not p10)) (or p34 p56 (not p38)) (or p46 p38 p33) (or (not p31) p69 p35) (or (not p45) p52 (not p52)) (or (not p62) (not p18) (not p63)) (or (not p2) p17 (not p24)) (or (not p54) (not p0) p32) (or (not p42) p5 (not p68)) (or p44 (not p20) (not p3)) (or p17 p1 p2) (or p48 p64 (not p55)) (or (not p0) p31 (not p63)) (or p0 (not p2) p21) (or p59 p34 (not p2)) (or p50 (not p67) p66) (or p41 p22 (not p7)) (or p61 p38 p13) (or (not p31) (not p61) p57) (or p58 p43 (not p49)) (or (not p38) p27 (not p17)) (or (not p4) p29 (not p1)) (or (not p33) (not p66) (not p32)) (or p5 (not p2) (not p7)) (or (not p59) (not p31) p51) (or (not p6) (not p40) p50) (or p4 p57 p68) (or p38 p44 p21) (or p20 (not p1) p56) (or p29 (not p36) (not p62)) (or (not p63) p62 (not p66)) (or p64 (not p12) p3) (or p31 p2 (not p17)) (or p52 p33 p63) (or (not p65) p20 (not p27)) (or (not p13) p16 p1) (or p7 p57 (not p33)) (or p10 p37 p67) (or (not p12) (not p22) (not p22)) (or p20 p41 (not p33)) (or p20 p1 (not p46)) (or (not p65) p37 (not p32)) (or (not p63) p40 (not p3)) (or (not p57) p39 (not p29)) (or (not p21) (not p67) p3) (or p9 (not p1) p26) (or (not p13) p0 (not p21)) (or p5 (not p54) (not p48)) (or (not p55) (not p22) (not p12)) (or (not p52) p65 p65) (or p9 p66 (not p63)) (or p36 p39 (not p3)) (or p11 (not p50) (not p0)) (or p28 p17 p47) (or p35 p28 (not p17)) (or p16 (not p56) (not p13)) (or (not p59) p46 (not p69)) (or (not p49) p25 (not p21)) (or p47 (not p23) p45) (or p69 (not p29) (not p56)) (or p19 (not p8) p40) (or p51 p38 (not p62)) (or (not p42) (not p45) (not p57)) (or (not p11) (not p19) p21) (or p12 (not p16) p32) (or (not p2) p20 p44) (or (not p42) p67 (not p48)) (or (not p30) (not p34) p31) (or (not p63) (not p64) p16) (or p8 p67 p29) (or p0 (not p46) (not p46)) (or p67 p14 p46) (or (not p63) (not p13) p44) (or p31 (not p23) (not p50)) (or p11 (not p53) p31) (or p33 (not p43) p46) (or (not p50) p33 (not p23)) (or (not p58) (not p13) p67) (or (not p18) (not p42) (not p33)) (or p19 (not p28) p38) (or p13 p2 p49) (or p20 p40 (not p22)) (or (not p63) p57 p7) (or p3 p67 p46) (or p43 p19 p32) (or p6 p10 (not p55)) (or p27 p54 (not p42)) (or p41 p56 (not p7)) (or (not p36) p57 p40) (or (not p41) p54 (not p51)) (or (not p44) p22 p40) (or p28 p20 (not p18)) (or (not p24) (not p46) p50) (or (not p10) p64 p55) (or (not p23) p54 (not p40)) (or (not p49) p3 (not p47)) (or p64 (not p39) p52) (or p59 (not p26) p26) (or p57 (not p11) (not p65)) (or p0 (not p19) p0) (or p35 (not p53) (not p3)) (or (not p19) p67 (not p17)) (or (not p59) p58 (not p68)) (or (not p15) p34 p26) (or (not p37) p22 p44) (or (not p40) p69 p43) (or p69 p42 p35) (or (not p5) p61 (not p18)) (or p23 (not p59) p12) (or p13 (not p46) p45) (or (not p9) p1 (not p68)) (or (not p28) (not p56) (not p31)) (or p62 (not p6) (not p60)) (or (not p47) (not p15) p2) (or p32 (not p5) p18) (or (not p49) p57 (not p53)) (or p32 (not p54) (not p24)) (or (not p13) (not p25) (not p55)) (or (not p15) (not p34) (not p49)) (or (not p20) p35 (not p5)) (or (not p53) (not p27) (not p54)) (or p50 (not p32) p22) (or (not p6) p68 (not p22)) (or (not p33) (not p8) (not p58)) (or p40 p37 (not p17)) (or (not p20) p30 p37) (or (not p69) p24 (not p35)) (or (not p3) (not p65) p59) (or p66 (not p56) (not p37)) (or (not p10) p42 p41) (or p35 (not p12) p5) (or (not p55) p24 (not p57)) (or (not p63) p47 (not p63)) (or p29 (not p7) p40) (or (not p17) p61 (not p14)) (or (not p59) p62 p24) (or (not p13) p12 p38) (or (not p68) p23 p3) (or (not p63) (not p17) (not p5)) (or (not p38) p25 (not p58)) (or p30 p6 p20) (or p22 (not p2) p55) (or (not p5) (not p31) p6) (or p8 p8 (not p49)) (or (not p3) (not p35) p34) (or p28 (not p53) (not p49)) (or (not p62) (not p31) (not p4)) (or (not p36) p62 p37) (or p0 p1 p4) (or (not p51) (not p58) p7) (or (not p63) p40 p54) (or p9 (not p62) (not p10)) (or (not p14) p45 p32) (or (not p40) (not p49) (not p12)) (or p15 p38 p22) (or (not p37) (not p30) (not p12)) (or (not p51) (not p0) (not p15)) (or p32 p42 p52) (or p26 (not p47) p44) (or p52 (not p43) (not p23)) (or p27 (not p22) (not p31)) (or (not p59) (not p42) p48) (or p12 p66 p65) (or (not p33) (not p62) (not p52)) (or p0 p5 (not p59)) (or (not p22) (not p21) p34) (or (not p9) (not p7) p12) (or (not p16) (not p16) p36) (or (not p55) (not p36) p41) (or p66 p3 (not p40)) (or p13 (not p36) (not p64)) (or p52 p20 p3) (or (not p23) p22 (not p29)) (or p24 (not p48) (not p20)) (or p65 (not p14) (not p60)) (or (not p36) p11 p48) (or p56 (not p3) (not p49)) (or (not p68) p3 p9) (or (not p28) p63 (not p4)) (or (not p59) p64 (not p29)) (or (not p6) p35 (not p47)) (or p6 p59 p13) (or p46 p11 p53) (or p25 p68 (not p20)) (or (not p57) p68 p24) (or p58 p16 p11) (or (not p34) (not p40) (not p13)) (or (not p67) (not p31) p5) (or p10 (not p11) p5) (or p46 (not p54) p63) (or p51 p18 (not p47)) (or p45 (not p43) (not p3)) (or p11 p40 p46) (or (not p41) (not p25) p11) (or p34 p15 p22) (or p31 p56 (not p56)) (or p39 p43 p51) (or p46 (not p40) p46) (or p19 (not p58) (not p26)) (or p59 (not p26) (not p22)) (or (not p40) (not p56) p24) (or p47 p3 (not p65)) (or (not p0) p69 (not p0)) (or (not p43) p69 (not p31)) (or p40 (not p20) (not p28)) (or p45 (not p58) p10) (or p27 p66 (not p29)) (or p29 (not p68) p15) (or p23 p31 p40) (or (not p27) (not p58) p26) (or (not p38) (not p22) (not p8)) (or p62 (not p66) (not p47)) (or p7 (not p15) p54) (or p48 (not p31) (not p24)) (or p8 (not p16) (not p24)) (or (not p21) (not p40) p37) (or p12 (not p17) (not p65)) (or p60 (not p48) (not p42)) (or (not p14) p4 p67) (or p14 (not p24) (not p54)) (or p19 (not p36) p13) (or p62 p25 p43) (or p24 (not p69) (not p62)) (or (not p42) p5 p37) (or (not p8) (not p69) p47) (or (not p25) p6 p33) (or (not p6) (not p25) p57) (or (not p62) p36 p38) (or (not p48) p18 (not p65)) (or p41 (not p22) p1) (or (not p26) (not p52) (not p30)) (or p1 p63 p20) (or (not p29) p53 p65) (or p41 p12 (not p52)) (or p0 p45 (not p52)) (or (not p33) (not p17) p11) (or p57 (not p9) p56) (or (not p35) p48 p2) (or p64 (not p18) (not p39)) (or p63 p50 p16) (or (not p3) (not p15) (not p46)) (or (not p32) p8 (not p27)) (or p9 (not p49) (not p49)) (or p9 p61 p14) (or p45 (not p47) p31) (or p50 (not p6) (not p60)) (or (not p55) p53 p69) (or p4 (not p58) (not p67)) (or (not p57) (not p13) p29) (or (not p39) p52 (not p21)) (or (not p38) (not p30) (not p43)) (or (not p66) (not p63) p39) (or (not p62) (not p4) (not p7)) (or (not p54) p0 (not p64)) (or (not p66) p46 (not p8)) (or (not p37) p33 p4) (or (not p4) (not p53) p11) (or p64 p27 (not p36)) (or (not p62) p52 p58) (or (not p28) (not p57) (not p68)) (or p53 p43 p54) (or (not p62) p5 (not p31)) (or (not p61) p39 (not p2)) (or p34 p41 p63) (or p14 (not p39) p32) (or p66 (not p27) p23) (or (not p5) p41 p21))
)
(check-sat)
(get-model)
